NAME : portgen-18-41
COMMENT : portgen N=18, seed=41
TYPE : TSP
DIMENSION : 18
EDGE_WEIGHT_TYPE : EUC_2D
NODE_COORD_SECTION
1 814310 245103
2 944767 502657
3 262496 756363
4 702355 776629
5 598571 395432
6 103317 711527
7 788403 708896
8 965725 96326
9 507892 252124
10 569510 337809
11 67216 546344
12 687935 381648
13 405947 672189
14 363098 422501
15 705698 943049
16 547 242218
17 763855 938360
18 31088 439505
